c minVC: 12
p edge 18 43
e 2 4
e 1 7
e 3 8
e 2 9
e 4 9
e 2 10
e 4 10
e 9 10
e 2 11
e 3 11
e 4 11
e 9 11
e 10 11
e 1 12
e 2 12
e 3 12
e 4 12
e 8 12
e 9 12
e 10 12
e 11 12
e 1 13
e 7 13
e 5 14
e 6 14
e 1 15
e 7 15
e 8 15
e 10 15
e 11 15
e 12 15
e 1 16
e 7 16
e 12 16
e 13 16
e 15 16
e 3 17
e 8 17
e 5 18
e 6 18
e 7 18
e 13 18
e 14 18
